%% Data to solve TLP (1st instance from da Silva et al, "Multicommodity flow model....")
J = 6;
T = 9;
C = 4;

job_tools = [| 1, 0, 0, 1, 0, 0, 0, 1, 1
                   | 1, 0, 1, 0, 1, 0, 0, 0, 0 
                   | 0, 1, 0, 0, 0, 1, 1, 1, 0
                   | 1, 0, 0, 0, 1, 0, 1, 0, 1
                   | 0, 0, 1, 0, 1, 0, 0, 1, 0
                   | 1, 1, 0, 1, 0, 0, 0, 0, 0
        |];
        
%% If the sequence is specified, the objective will solve TLP 
%%
%sequence = [4, 2, 5, 3, 6, 1];   
sequence = [1,2,3,4,5,6];   